/*********************************************
    * Lab01 - simple
    * Author: Coso
    * Creation Date: Mar, 2019
    *********************************************/
instance_name = "small_instance_04_simple";

d = 2;
r = 3;

SCj = [147 165];
Dk = [75 83 30];

Cjk = [[54 57 51]
 [41 79 77]];
